p cnf 44 303
11 12 13 14 0
21 22 23 24 0
31 32 33 34 0
41 42 43 44 0
51 52 53 54 0
61 62 63 64 0
71 72 73 74 0
81 82 83 84 0
91 92 93 94 0
101 102 103 104 0
111 112 113 114 0
-11 -12 0
-11 -13 0
-11 -14 0
-12 -11 0
-12 -13 0
-12 -14 0
-13 -11 0
-13 -12 0
-13 -14 0
-14 -11 0
-14 -12 0
-14 -13 0
-21 -22 0
-21 -23 0
-21 -24 0
-22 -21 0
-22 -23 0
-22 -24 0
-23 -21 0
-23 -22 0
-23 -24 0
-24 -21 0
-24 -22 0
-24 -23 0
-31 -32 0
-31 -33 0
-31 -34 0
-32 -31 0
-32 -33 0
-32 -34 0
-33 -31 0
-33 -32 0
-33 -34 0
-34 -31 0
-34 -32 0
-34 -33 0
-41 -42 0
-41 -43 0
-41 -44 0
-42 -41 0
-42 -43 0
-42 -44 0
-43 -41 0
-43 -42 0
-43 -44 0
-44 -41 0
-44 -42 0
-44 -43 0
-51 -52 0
-51 -53 0
-51 -54 0
-52 -51 0
-52 -53 0
-52 -54 0
-53 -51 0
-53 -52 0
-53 -54 0
-54 -51 0
-54 -52 0
-54 -53 0
-61 -62 0
-61 -63 0
-61 -64 0
-62 -61 0
-62 -63 0
-62 -64 0
-63 -61 0
-63 -62 0
-63 -64 0
-64 -61 0
-64 -62 0
-64 -63 0
-71 -72 0
-71 -73 0
-71 -74 0
-72 -71 0
-72 -73 0
-72 -74 0
-73 -71 0
-73 -72 0
-73 -74 0
-74 -71 0
-74 -72 0
-74 -73 0
-81 -82 0
-81 -83 0
-81 -84 0
-82 -81 0
-82 -83 0
-82 -84 0
-83 -81 0
-83 -82 0
-83 -84 0
-84 -81 0
-84 -82 0
-84 -83 0
-91 -92 0
-91 -93 0
-91 -94 0
-92 -91 0
-92 -93 0
-92 -94 0
-93 -91 0
-93 -92 0
-93 -94 0
-94 -91 0
-94 -92 0
-94 -93 0
-101 -102 0
-101 -103 0
-101 -104 0
-102 -101 0
-102 -103 0
-102 -104 0
-103 -101 0
-103 -102 0
-103 -104 0
-104 -101 0
-104 -102 0
-104 -103 0
-111 -112 0
-111 -113 0
-111 -114 0
-112 -111 0
-112 -113 0
-112 -114 0
-113 -111 0
-113 -112 0
-113 -114 0
-114 -111 0
-114 -112 0
-114 -113 0
-11 -21 0
-12 -22 0
-13 -23 0
-14 -24 0
-11 -41 0
-12 -42 0
-13 -43 0
-14 -44 0
-11 -71 0
-12 -72 0
-13 -73 0
-14 -74 0
-11 -91 0
-12 -92 0
-13 -93 0
-14 -94 0
-21 -11 0
-22 -12 0
-23 -13 0
-24 -14 0
-21 -31 0
-22 -32 0
-23 -33 0
-24 -34 0
-21 -61 0
-22 -62 0
-23 -63 0
-24 -64 0
-21 -81 0
-22 -82 0
-23 -83 0
-24 -84 0
-31 -21 0
-32 -22 0
-33 -23 0
-34 -24 0
-31 -51 0
-32 -52 0
-33 -53 0
-34 -54 0
-31 -71 0
-32 -72 0
-33 -73 0
-34 -74 0
-31 -101 0
-32 -102 0
-33 -103 0
-34 -104 0
-41 -11 0
-42 -12 0
-43 -13 0
-44 -14 0
-41 -51 0
-42 -52 0
-43 -53 0
-44 -54 0
-41 -61 0
-42 -62 0
-43 -63 0
-44 -64 0
-41 -101 0
-42 -102 0
-43 -103 0
-44 -104 0
-51 -31 0
-52 -32 0
-53 -33 0
-54 -34 0
-51 -41 0
-52 -42 0
-53 -43 0
-54 -44 0
-51 -81 0
-52 -82 0
-53 -83 0
-54 -84 0
-51 -91 0
-52 -92 0
-53 -93 0
-54 -94 0
-61 -21 0
-62 -22 0
-63 -23 0
-64 -24 0
-61 -41 0
-62 -42 0
-63 -43 0
-64 -44 0
-61 -111 0
-62 -112 0
-63 -113 0
-64 -114 0
-71 -11 0
-72 -12 0
-73 -13 0
-74 -14 0
-71 -31 0
-72 -32 0
-73 -33 0
-74 -34 0
-71 -111 0
-72 -112 0
-73 -113 0
-74 -114 0
-81 -21 0
-82 -22 0
-83 -23 0
-84 -24 0
-81 -51 0
-82 -52 0
-83 -53 0
-84 -54 0
-81 -111 0
-82 -112 0
-83 -113 0
-84 -114 0
-91 -11 0
-92 -12 0
-93 -13 0
-94 -14 0
-91 -51 0
-92 -52 0
-93 -53 0
-94 -54 0
-91 -111 0
-92 -112 0
-93 -113 0
-94 -114 0
-101 -31 0
-102 -32 0
-103 -33 0
-104 -34 0
-101 -41 0
-102 -42 0
-103 -43 0
-104 -44 0
-101 -111 0
-102 -112 0
-103 -113 0
-104 -114 0
-111 -61 0
-112 -62 0
-113 -63 0
-114 -64 0
-111 -71 0
-112 -72 0
-113 -73 0
-114 -74 0
-111 -81 0
-112 -82 0
-113 -83 0
-114 -84 0
-111 -91 0
-112 -92 0
-113 -93 0
-114 -94 0
-111 -101 0
-112 -102 0
-113 -103 0
-114 -104 0
